DATASET = "thpack1";
INSTANCE = "007";

WIDTH = 233;
HEIGHT = 220;
LENGTH = 587;

NO_OF_SHAPES = 3;
size = [|
  118,79,51 |
  86,32,31 |
  64,58,52 |
|];

verticality = [|
  0,1,1 |
  0,1,1 |
  1,1,1 |
|];

box_count = [
  37,
  44,
  45,
];
